certificates/rado_a9_c78_N20.cnf
c Rad2 upper bound instance: x1 + 9*x2 - x3 = 78, interval [1,20]
p cnf 20 88
1 4 9 0
-1 -4 -9 0
1 10 13 0
-1 -10 -13 0
2 5 9 0
-2 -5 -9 0
2 10 14 0
-2 -10 -14 0
3 6 9 0
-3 -6 -9 0
3 10 15 0
-3 -10 -15 0
4 7 9 0
-4 -7 -9 0
4 10 16 0
-4 -10 -16 0
5 8 9 0
-5 -8 -9 0
5 10 17 0
-5 -10 -17 0
6 9 0
-6 -9 0
6 10 18 0
-6 -10 -18 0
1 7 8 0
-1 -7 -8 0
7 9 10 0
-7 -9 -10 0
7 10 19 0
-7 -10 -19 0
2 8 0
-2 -8 0
8 9 11 0
-8 -9 -11 0
8 10 20 0
-8 -10 -20 0
3 8 9 0
-3 -8 -9 0
9 12 0
-9 -12 0
4 8 10 0
-4 -8 -10 0
9 10 13 0
-9 -10 -13 0
5 8 11 0
-5 -8 -11 0
9 11 14 0
-9 -11 -14 0
6 8 12 0
-6 -8 -12 0
9 12 15 0
-9 -12 -15 0
7 8 13 0
-7 -8 -13 0
9 13 16 0
-9 -13 -16 0
8 14 0
-8 -14 0
9 14 17 0
-9 -14 -17 0
8 9 15 0
-8 -9 -15 0
9 15 18 0
-9 -15 -18 0
1 7 16 0
-1 -7 -16 0
8 10 16 0
-8 -10 -16 0
9 16 19 0
-9 -16 -19 0
2 7 17 0
-2 -7 -17 0
8 11 17 0
-8 -11 -17 0
9 17 20 0
-9 -17 -20 0
3 7 18 0
-3 -7 -18 0
8 12 18 0
-8 -12 -18 0
4 7 19 0
-4 -7 -19 0
8 13 19 0
-8 -13 -19 0
5 7 20 0
-5 -7 -20 0
8 14 20 0
-8 -14 -20 0
