certificates/rado_a9_c78_N20.drat
9 -18 -19 0
-8 -20 0
-19 8 0
-20 0
10 0
19 -8 0
-8 0
2 0
14 0
-19 0
0
